/*********************************************
 * OPL 12.8.0.0 Data
 * Author: Daniele
 * Creation Date: 11/mar/2019 at 16:44:44
 *********************************************/

alphabet = { 15, 11, 17, 9, 31 };

gSize = 8;
hSize = 8;

G = [ 15, 15, 11, 15, 31, 31, 17, 11 ];
H = [ 11, 15, 11, 15, 31, 31, 17, 11 ];